[VALIDATOR STDOUT]
Checking plan: /home/jfan5/Safety-gen/runs/benchmark/optic/delivery_20260205_114717/delivery/optic_results/delivery_size34_packages1_seed34001.plan
Plan executed successfully - checking goal
Plan valid
Final value: 252 

Successful plans:
Value: 252
 /home/jfan5/Safety-gen/runs/benchmark/optic/delivery_20260205_114717/delivery/optic_results/delivery_size34_packages1_seed34001.plan 252
